
Gurobi 7.5.2 (linux64) logging started Sat Jul  7 16:01:13 2018

Changed value of parameter LogFile to result/ilp/simNo_8-n_100-m_40-s_4-minVAF_0.05-cov_10000-k_2-fn_0.15-fp_0.0001-na_0.15.ILP.gurobiSolverLog
   Prev: gurobi.log  Default: 
Changed value of parameter TimeLimit to 86400.0
   Prev: 1e+100  Min: 0.0  Max: 1e+100  Default: 1e+100
Optimize a model with 639293 rows, 10765 columns and 1940420 nonzeros
Variable types: 0 continuous, 10765 integer (10765 binary)
Coefficient statistics:
  Matrix range     [3e-04, 4e+00]
  Objective range  [2e+00, 1e+01]
  Bounds range     [1e+00, 1e+00]
  RHS range        [2e-01, 2e+00]
Found heuristic solution: objective -14070.16514
Presolve removed 132396 rows and 1019 columns (presolve time = 5s) ...
Presolve removed 132970 rows and 1019 columns (presolve time = 12s) ...
Presolve removed 190370 rows and 1593 columns (presolve time = 16s) ...
Presolve removed 190370 rows and 1593 columns
Presolve time: 17.16s
Presolved: 448923 rows, 9172 columns, 1349101 nonzeros
Variable types: 0 continuous, 9172 integer (9172 binary)
Presolved: 9172 rows, 458095 columns, 1358273 nonzeros

Presolve removed 9172 rows and 458095 columns

Root simplex log...

Iteration    Objective       Primal Inf.    Dual Inf.      Time
       0    2.6275884e+01   0.000000e+00   6.920100e+04     21s
   23591   -2.7843979e+02   0.000000e+00   1.615000e+02     25s
   23653   -2.7818924e+02   0.000000e+00   0.000000e+00     25s
   23653   -2.7818924e+02   0.000000e+00   0.000000e+00     26s

Root relaxation: objective -2.781892e+02, 23653 iterations, 7.54 seconds
Total elapsed time = 51.71s
Total elapsed time = 86.50s
Total elapsed time = 104.60s

    Nodes    |    Current Node    |     Objective Bounds      |     Work
 Expl Unexpl |  Obj  Depth IntInf | Incumbent    BestBd   Gap | It/Node Time

     0     0 -278.18924    0 1218 -14070.165 -278.18924  98.0%     -  111s
H    0     0                    -464.0364242 -278.18924  40.1%     -  114s
H    0     0                    -383.1172130 -278.18924  27.4%     -  116s
     0     0 -282.80324    0 1865 -383.11721 -282.80324  26.2%     -  180s
H    0     0                    -368.4351186 -282.80324  23.2%     -  190s
H    0     0                    -342.9964460 -282.80324  17.5%     -  190s
     0     0 -286.31829    0 1943 -342.99645 -286.31829  16.5%     -  574s
H    0     0                    -337.0281760 -286.31829  15.0%     -  577s
     0     0 -287.01161    0 2001 -337.02818 -287.01161  14.8%     -  620s
     0     0 -287.13681    0 2015 -337.02818 -287.13681  14.8%     -  646s
     0     0 -287.13681    0 2015 -337.02818 -287.13681  14.8%     -  650s
     0     0 -290.34888    0 1694 -337.02818 -290.34888  13.9%     - 1600s
H    0     0                    -335.3322645 -290.34888  13.4%     - 1606s
     0     0 -290.69659    0 1142 -335.33226 -290.69659  13.3%     - 1624s
     0     0 -290.69659    0 1133 -335.33226 -290.69659  13.3%     - 1628s
     0     0 -291.04185    0 1671 -335.33226 -291.04185  13.2%     - 1810s
     0     0 -291.34642    0 1676 -335.33226 -291.34642  13.1%     - 2211s
     0     0 -291.39758    0 1772 -335.33226 -291.39758  13.1%     - 2230s
     0     0 -291.40090    0 1720 -335.33226 -291.40090  13.1%     - 2238s
     0     0 -291.40090    0 1720 -335.33226 -291.40090  13.1%     - 2241s
     0     0 -293.47594    0 1726 -335.33226 -293.47594  12.5%     - 2658s
     0     0 -293.68151    0 1727 -335.33226 -293.68151  12.4%     - 2670s
     0     0 -293.78456    0 1728 -335.33226 -293.78456  12.4%     - 2690s
     0     0 -293.78456    0 1728 -335.33226 -293.78456  12.4%     - 2694s
     0     0 -294.53463    0 1707 -335.33226 -294.53463  12.2%     - 2906s
     0     0 -294.88520    0 1511 -335.33226 -294.88520  12.1%     - 3078s
     0     0 -295.04467    0 1541 -335.33226 -295.04467  12.0%     - 3295s
     0     0 -295.04467    0 1541 -335.33226 -295.04467  12.0%     - 3301s
     0     0 -297.28392    0 1744 -335.33226 -297.28392  11.3%     - 6143s
     0     0 -297.30273    0 1739 -335.33226 -297.30273  11.3%     - 6158s
     0     0 -297.35127    0 1778 -335.33226 -297.35127  11.3%     - 6168s
     0     0 -297.35864    0 1776 -335.33226 -297.35864  11.3%     - 6173s
     0     0 -297.35864    0 1777 -335.33226 -297.35864  11.3%     - 6175s
     0     0 -298.24710    0 1565 -335.33226 -298.24710  11.1%     - 6326s
H    0     0                    -335.0341664 -298.24710  11.0%     - 6344s
     0     0 -298.54236    0 1555 -335.03417 -298.54236  10.9%     - 6367s
     0     0 -298.59416    0 1552 -335.03417 -298.59416  10.9%     - 6376s
     0     0 -298.59416    0 1551 -335.03417 -298.59416  10.9%     - 6379s
     0     0 -299.57271    0 1532 -335.03417 -299.57271  10.6%     - 6992s
H    0     0                    -326.5037486 -299.57271  8.25%     - 7004s
     0     0 -299.90352    0 1522 -326.50375 -299.90352  8.15%     - 7121s
     0     0 -299.94775    0 1541 -326.50375 -299.94775  8.13%     - 7134s
     0     0 -299.94929    0 1540 -326.50375 -299.94929  8.13%     - 7137s
     0     0 -301.78100    0 1585 -326.50375 -301.78100  7.57%     - 9161s
     0     0 -302.23041    0 1536 -326.50375 -302.23041  7.43%     - 9969s
     0     0 -302.24325    0 1574 -326.50375 -302.24325  7.43%     - 9985s
     0     0 -302.24325    0 1579 -326.50375 -302.24325  7.43%     - 9989s
     0     0 -303.95152    0 1176 -326.50375 -303.95152  6.91%     - 14782s
     0     0 -303.95152    0 1180 -326.50375 -303.95152  6.91%     - 14790s
     0     0 -304.50813    0 1023 -326.50375 -304.50813  6.74%     - 15675s
     0     0 -304.50813    0 1003 -326.50375 -304.50813  6.74%     - 15685s
     0     0 -305.07344    0 1017 -326.50375 -305.07344  6.56%     - 16216s
     0     0 -305.08855    0 1182 -326.50375 -305.08855  6.56%     - 16347s
     0     0 -305.08855    0 1182 -326.50375 -305.08855  6.56%     - 16351s
     0     0 -305.85035    0 1159 -326.50375 -305.85035  6.33%     - 18177s
     0     0 -306.13300    0 1161 -326.50375 -306.13300  6.24%     - 19431s
     0     0 -306.13300    0 1163 -326.50375 -306.13300  6.24%     - 19440s
     0     0 -306.40245    0 1624 -326.50375 -306.40245  6.16%     - 20450s
     0     0 -306.51986    0 1592 -326.50375 -306.51986  6.12%     - 20494s
     0     0 -306.52473    0 1590 -326.50375 -306.52473  6.12%     - 20507s
     0     0 -306.53027    0 1593 -326.50375 -306.53027  6.12%     - 20525s
     0     0 -306.53027    0 1596 -326.50375 -306.53027  6.12%     - 20537s
     0     0 -307.47828    0 1586 -326.50375 -307.47828  5.83%     - 21958s
     0     0 -307.69949    0 1183 -326.50375 -307.69949  5.76%     - 22101s
     0     0 -307.71954    0 1591 -326.50375 -307.71954  5.75%     - 22175s
     0     0 -307.73565    0 1587 -326.50375 -307.73565  5.75%     - 22183s
     0     0 -307.73565    0 1582 -326.50375 -307.73565  5.75%     - 22187s
     0     0 -308.26097    0 1175 -326.50375 -308.26097  5.59%     - 23044s
     0     0 -308.40400    0 1577 -326.50375 -308.40400  5.54%     - 24196s
     0     0 -308.56209    0 1184 -326.50375 -308.56209  5.50%     - 24447s
     0     0 -308.56209    0 1190 -326.50375 -308.56209  5.50%     - 24454s
     0     0 -308.84398    0 1181 -326.50375 -308.84398  5.41%     - 26196s
H    0     0                    -324.8078371 -308.84398  4.91%     - 26212s
     0     0 -308.88808    0 1182 -324.80784 -308.88808  4.90%     - 26231s
     0     0 -308.88808    0 1186 -324.80784 -308.88808  4.90%     - 26237s
     0     0 -309.49676    0 1168 -324.80784 -309.49676  4.71%     - 26874s
     0     0 -309.53069    0 1186 -324.80784 -309.53069  4.70%     - 26916s
     0     0 -309.57366    0 1586 -324.80784 -309.57366  4.69%     - 27083s
     0     0 -309.57653    0 1588 -324.80784 -309.57653  4.69%     - 27100s
     0     0 -310.15489    0 1084 -324.80784 -310.15489  4.51%     - 28486s
     0     0 -310.16632    0 1184 -324.80784 -310.16632  4.51%     - 28542s
     0     0 -310.16632    0 1184 -324.80784 -310.16632  4.51%     - 28550s
     0     0 -310.21650    0 1177 -324.80784 -310.21650  4.49%     - 28629s
     0     0 -310.54373    0 1178 -324.80784 -310.54373  4.39%     - 31228s
     0     0 -310.60688    0 1175 -324.80784 -310.60688  4.37%     - 31243s
     0     0 -310.60688    0 1170 -324.80784 -310.60688  4.37%     - 31247s
     0     0 -310.60688    0 1175 -324.80784 -310.60688  4.37%     - 31259s
     0     0 -310.60688    0 1183 -324.80784 -310.60688  4.37%     - 31283s
     0     0 -310.80774    0 1187 -324.80784 -310.80774  4.31%     - 32065s
     0     0 -310.84571    0 1193 -324.80784 -310.84571  4.30%     - 32281s
     0     0 -310.84574    0 1194 -324.80784 -310.84574  4.30%     - 32289s
     0     0 -310.84574    0 1197 -324.80784 -310.84574  4.30%     - 32304s
     0     0 -310.95999    0 1609 -324.80784 -310.95999  4.26%     - 32557s
     0     0 -310.99088    0 1201 -324.80784 -310.99088  4.25%     - 32620s
     0     0 -310.99351    0 1614 -324.80784 -310.99351  4.25%     - 32653s
     0     0 -310.99467    0 1616 -324.80784 -310.99467  4.25%     - 32668s
     0     0 -310.99467    0 1617 -324.80784 -310.99467  4.25%     - 32703s
     0     0 -311.31178    0 1612 -324.80784 -311.31178  4.16%     - 32791s
     0     0 -311.46383    0 1603 -324.80784 -311.46383  4.11%     - 32928s
     0     0 -311.49524    0 1599 -324.80784 -311.49524  4.10%     - 32995s
     0     0 -311.49966    0 1602 -324.80784 -311.49966  4.10%     - 33008s
     0     0 -311.49966    0 1605 -324.80784 -311.49966  4.10%     - 33010s
     0     0 -311.49966    0 1606 -324.80784 -311.49966  4.10%     - 33020s
     0     0 -312.13451    0 1596 -324.80784 -312.13451  3.90%     - 35866s
     0     0 -312.18719    0 1598 -324.80784 -312.18719  3.89%     - 35990s
     0     0 -312.18947    0 1603 -324.80784 -312.18947  3.88%     - 36006s
     0     0 -312.43510    0 1190 -324.80784 -312.43510  3.81%     - 36194s
     0     0 -312.51322    0 1191 -324.80784 -312.51322  3.79%     - 36294s
     0     0 -312.53699    0 1198 -324.80784 -312.53699  3.78%     - 36313s
     0     0 -312.54633    0 1199 -324.80784 -312.54633  3.78%     - 36324s
     0     0 -312.54850    0 1198 -324.80784 -312.54850  3.77%     - 36334s
     0     0 -312.64210    0 1194 -324.80784 -312.64210  3.75%     - 36588s
     0     0 -312.68758    0 1201 -324.80784 -312.68758  3.73%     - 36615s
     0     0 -312.70155    0 1204 -324.80784 -312.70155  3.73%     - 36625s
     0     0 -312.70460    0 1204 -324.80784 -312.70460  3.73%     - 36633s
     0     0 -312.81028    0 1195 -324.80784 -312.81028  3.69%     - 36996s
     0     0 -312.82963    0 1189 -324.80784 -312.82963  3.69%     - 37143s
     0     0 -312.82963    0 1189 -324.80784 -312.82963  3.69%     - 37148s
     0     0 -313.26498    0 1604 -324.80784 -313.26498  3.55%     - 38668s
     0     0 -313.36354    0 1191 -324.80784 -313.36354  3.52%     - 39628s
     0     0 -313.37199    0 1196 -324.80784 -313.37199  3.52%     - 39687s
     0     0 -313.37606    0 1193 -324.80784 -313.37606  3.52%     - 39704s
     0     0 -313.38104    0 1197 -324.80784 -313.38104  3.52%     - 39719s
     0     0 -313.39399    0 1199 -324.80784 -313.39399  3.51%     - 39734s
     0     0 -313.39399    0 1201 -324.80784 -313.39399  3.51%     - 39738s
     0     0 -313.80959    0 1196 -324.80784 -313.80959  3.39%     - 41709s
     0     0 -313.88224    0 1610 -324.80784 -313.88224  3.36%     - 42011s
     0     0 -313.91022    0 1622 -324.80784 -313.91022  3.36%     - 42057s
     0     0 -313.91729    0 1622 -324.80784 -313.91729  3.35%     - 42081s
     0     0 -313.91729    0 1622 -324.80784 -313.91729  3.35%     - 42084s
     0     0 -314.08064    0 1620 -324.80784 -314.08064  3.30%     - 42140s
     0     0 -314.10653    0 1207 -324.80784 -314.10653  3.29%     - 42178s
     0     0 -314.11773    0 1200 -324.80784 -314.11773  3.29%     - 42189s
     0     0 -314.12377    0 1207 -324.80784 -314.12377  3.29%     - 42198s
     0     0 -314.12535    0 1208 -324.80784 -314.12535  3.29%     - 42202s
     0     0 -314.42776    0 1184 -324.80784 -314.42776  3.20%     - 42270s
     0     0 -314.49419    0 1179 -324.80784 -314.49419  3.18%     - 42303s
     0     0 -314.49586    0 1196 -324.80784 -314.49586  3.17%     - 42308s
     0     0 -314.72352    0 1196 -324.80784 -314.72352  3.10%     - 42363s
     0     0 -314.82030    0 1198 -324.80784 -314.82030  3.07%     - 42797s
     0     0 -314.82039    0 1206 -324.80784 -314.82039  3.07%     - 42806s
     0     0 -314.96119    0 1614 -324.80784 -314.96119  3.03%     - 43781s
     0     0 -315.02976    0 1197 -324.80784 -315.02976  3.01%     - 43913s
     0     0 -315.05130    0 1188 -324.80784 -315.05130  3.00%     - 43966s
     0     0 -315.05555    0 1192 -324.80784 -315.05555  3.00%     - 43980s
     0     0 -315.05630    0 1190 -324.80784 -315.05630  3.00%     - 43984s
     0     0 -315.11232    0 1202 -324.80784 -315.11232  2.99%     - 44057s
     0     0 -315.21087    0 1195 -324.80784 -315.21087  2.95%     - 44256s
     0     0 -315.21669    0 1627 -324.80784 -315.21669  2.95%     - 44352s
     0     0 -315.22469    0 1202 -324.80784 -315.22469  2.95%     - 44381s
     0     0 -315.22469    0 1203 -324.80784 -315.22469  2.95%     - 44384s
     0     0 -315.44757    0 1612 -324.80784 -315.44757  2.88%     - 45057s
     0     0 -315.47760    0 1208 -324.80784 -315.47760  2.87%     - 45133s
     0     0 -315.47760    0 1206 -324.80784 -315.47760  2.87%     - 45138s
     0     0 -315.84680    0 1600 -324.80784 -315.84680  2.76%     - 45375s
     0     0 -315.84970    0 1611 -324.80784 -315.84970  2.76%     - 45387s
     0     0 -315.84970    0 1583 -324.80784 -315.84970  2.76%     - 46009s
     0     0 -315.84970    0 1219 -324.80784 -315.84970  2.76%     - 46186s
     0     0 -315.84970    0 1720 -324.80784 -315.84970  2.76%     - 46357s
     0     0 -315.88447    0 1278 -324.80784 -315.88447  2.75%     - 46379s
     0     0 -315.96481    0 1291 -324.80784 -315.96481  2.72%     - 46382s
     0     0 -315.96481    0 1300 -324.80784 -315.96481  2.72%     - 46383s
     0     0 -316.82054    0 1090 -324.80784 -316.82054  2.46%     - 46395s
     0     0 -316.98716    0 1075 -324.80784 -316.98716  2.41%     - 46398s
     0     0 -317.13433    0 1074 -324.80784 -317.13433  2.36%     - 46402s
     0     0 -317.15001    0 1080 -324.80784 -317.15001  2.36%     - 46405s
     0     0 -317.15223    0 1084 -324.80784 -317.15223  2.36%     - 46407s
     0     0 -317.37455    0 1064 -324.80784 -317.37455  2.29%     - 46416s
     0     0 -317.37597    0 1065 -324.80784 -317.37597  2.29%     - 46418s
     0     0 -317.37710    0 1059 -324.80784 -317.37710  2.29%     - 46422s
     0     0 -317.37710    0 1063 -324.80784 -317.37710  2.29%     - 46425s
     0     0 -317.37710    0  999 -324.80784 -317.37710  2.29%     - 46531s
     0     0 -317.37710    0 1011 -324.80784 -317.37710  2.29%     - 46534s
     0     0 -317.41784    0 1068 -324.80784 -317.41784  2.28%     - 46583s
     0     0 -317.43959    0 1077 -324.80784 -317.43959  2.27%     - 46587s
     0     0 -317.44884    0 1075 -324.80784 -317.44884  2.27%     - 46589s
     0     0 -317.46028    0 1070 -324.80784 -317.46028  2.26%     - 46591s
     0     0 -317.47179    0 1077 -324.80784 -317.47179  2.26%     - 46593s
     0     0 -317.47197    0 1073 -324.80784 -317.47197  2.26%     - 46594s
     0     0 -317.57370    0 1063 -324.80784 -317.57370  2.23%     - 46668s
     0     0 -317.59788    0 1064 -324.80784 -317.59788  2.22%     - 46671s
     0     0 -317.61086    0 1087 -324.80784 -317.61086  2.22%     - 46675s
     0     0 -317.61376    0 1082 -324.80784 -317.61376  2.21%     - 46678s
     0     0 -317.61964    0 1078 -324.80784 -317.61964  2.21%     - 46682s
     0     0 -317.62169    0 1081 -324.80784 -317.62169  2.21%     - 46685s
     0     0 -317.63850    0 1191 -324.80784 -317.63850  2.21%     - 46691s
     0     0 -317.67393    0 1189 -324.80784 -317.67393  2.20%     - 46695s
     0     0 -317.74800    0 1082 -324.80784 -317.74800  2.17%     - 46699s
     0     0 -317.75070    0 1179 -324.80784 -317.75070  2.17%     - 46701s
     0     0 -317.80171    0 1023 -324.80784 -317.80171  2.16%     - 46756s
     0     0 -317.82314    0 1083 -324.80784 -317.82314  2.15%     - 46760s
     0     0 -317.82717    0 1089 -324.80784 -317.82717  2.15%     - 46763s
     0     0 -317.86181    0 1177 -324.80784 -317.86181  2.14%     - 46768s
     0     0 -317.88355    0 1075 -324.80784 -317.88355  2.13%     - 46771s
     0     0 -317.88371    0 1085 -324.80784 -317.88371  2.13%     - 46773s
     0     0 -317.88684    0 1077 -324.80784 -317.88684  2.13%     - 46777s
     0     0 -317.88684    0 1076 -324.80784 -317.88684  2.13%     - 46780s
     0     0 -317.89602    0 1072 -324.80784 -317.89602  2.13%     - 46827s
     0     0 -317.89927    0 1082 -324.80784 -317.89927  2.13%     - 46832s
     0     0 -317.90565    0 1075 -324.80784 -317.90565  2.13%     - 46897s
     0     0 -317.90565    0 1074 -324.80784 -317.90565  2.13%     - 46952s
     0     0 -317.90565    0 1171 -324.80784 -317.90565  2.13%     - 47067s
     0     0 -317.90565    0 1028 -324.80784 -317.90565  2.13%     - 47110s
     0     0 -317.90565    0 1097 -324.80784 -317.90565  2.13%     - 47128s
     0     0 -317.90959    0 1019 -324.80784 -317.90959  2.12%     - 47130s
     0     0 -317.92136    0 1014 -324.80784 -317.92136  2.12%     - 47131s
     0     0 -317.92136    0 1016 -324.80784 -317.92136  2.12%     - 47132s
     0     0 -318.19884    0 1066 -324.80784 -318.19884  2.03%     - 47177s
     0     0 -318.19884    0 1039 -324.80784 -318.19884  2.03%     - 47192s
     0     0 -318.19884    0 1109 -324.80784 -318.19884  2.03%     - 47201s
     0     0 -318.19884    0 1078 -324.80784 -318.19884  2.03%     - 47202s
     0     0 -318.19884    0 1101 -324.80784 -318.19884  2.03%     - 47203s
     0     0 -318.19884    0 1077 -324.80784 -318.19884  2.03%     - 47203s
     0     0 -318.20855    0 1101 -324.80784 -318.20855  2.03%     - 47204s
     0     0 -318.20855    0 1102 -324.80784 -318.20855  2.03%     - 47204s
     0     0 -318.22592    0 1090 -324.80784 -318.22592  2.03%     - 47205s
     0     0 -318.23864    0 1081 -324.80784 -318.23864  2.02%     - 47206s
     0     0 -318.24337    0 1058 -324.80784 -318.24337  2.02%     - 47206s
     0     0 -318.24337    0 1060 -324.80784 -318.24337  2.02%     - 47207s
     0     0 -318.28947    0 1108 -324.80784 -318.28947  2.01%     - 47208s
     0     0 -318.28947    0  903 -324.80784 -318.28947  2.01%     - 47208s
     0     0 -318.29032    0  903 -324.80784 -318.29032  2.01%     - 47209s
     0     0 -318.29032    0  902 -324.80784 -318.29032  2.01%     - 47210s
     0     0 -318.29032    0  902 -324.80784 -318.29032  2.01%     - 47211s
     0     0 -318.29032    0  902 -324.80784 -318.29032  2.01%     - 47212s
     0     0 -318.29032    0  897 -324.80784 -318.29032  2.01%     - 47216s
     0     0 -318.29032    0  895 -324.80784 -318.29032  2.01%     - 47217s
     0     0 -318.29032    0  892 -324.80784 -318.29032  2.01%     - 47221s
     0     0 -318.29032    0  892 -324.80784 -318.29032  2.01%     - 47222s
     0     0 -318.29032    0  905 -324.80784 -318.29032  2.01%     - 47225s
     0     0 -318.29032    0  907 -324.80784 -318.29032  2.01%     - 47226s
     0     0 -318.29032    0  901 -324.80784 -318.29032  2.01%     - 47231s
     0     0 -318.29032    0  901 -324.80784 -318.29032  2.01%     - 47252s
     0     2 -318.29032    0  901 -324.80784 -318.29032  2.01%     - 47257s
     8     8 -320.37081    7  692 -324.80784 -318.43533  1.96%   308 47260s
    27    11 -319.31510    2  762 -324.80784 -318.47748  1.95%   191 47265s
    31    15 -323.50743    5  750 -324.80784 -318.47748  1.95%   224 47273s
    38    18 -324.64602   10  699 -324.80784 -318.47748  1.95%   219 47275s
    50    22     cutoff    8      -324.80784 -318.76945  1.86%   255 47280s
    67    23 -324.80142    8  753 -324.80784 -318.84497  1.84%   279 47285s
    85    25 -324.80142    9  754 -324.80784 -319.97180  1.49%   315 47290s
   107    32 -324.12564    8  670 -324.80784 -320.70633  1.26%   305 47295s
   144    17     cutoff    4      -324.80784 -323.50476  0.40%   267 47300s

Cutting planes:
  Gomory: 6
  Implied bound: 90
  Clique: 3
  MIR: 3
  Zero half: 182

Explored 173 nodes (1940398 simplex iterations) in 47303.40 seconds
Thread count was 1 (of 80 available processors)

Solution count 10: -324.808 -324.808 -324.808 ... -383.117

Optimal solution found (tolerance 1.00e-04)
Best objective -3.248078371297e+02, best bound -3.248078371297e+02, gap 0.0000%
